c turning on binary mode checking
c parsing input formula with 259840 variables and 1039929 clauses
c finished parsing, read 23681400 bytes from proof file
c detected empty clause; start verification via backward checking
c 19328 of 1039929 clauses in core                            
c 26099 of 605789 lemmas in core using 199960 resolution steps
c 0 RAT lemmas in core; 1708 redundant literals in core lemmas
s VERIFIED
c verification time: 3.042 seconds
